52	0

0	2	2	5
2	1	3
1	1	4
2	2	6	8
9	2	6	8
5	1	7
2	1	9
7	1	9
10	1	10
9	1	11
7	1	12
3	1	13
2	1	14
1	2	15	16
1	2	17	18
7	1	17
7	2	19	20
9	2	19	20
8	1	21
7	2	21	22
1	2	23	24
2	2	23	24
1	2	25	26
5	2	25	27
7	2	28	30
5	1	27
2	2	28	30
1	1	29
2	2	31	32
3	2	31	32
4	3	34	35	36
3	1	33
10	3	34	35	36
6	1	37
1	2	37	38
2	2	37	38
4	1	39
9	2	40	41
3	2	40	41
6	2	43	44
1	1	42
5	2	43	44
6	1	45
8	1	45
1	1	46
7	1	47
1	2	48	49
4	1	50
3	1	50
1	1	51
4	1	52
0	0
